
Gurobi 10.0.1 (mac64[arm]) logging started Mon Sep 18 21:43:15 2023

Set parameter LogFile to value "scenario_co2cap/results/mip_log.txt"
Gurobi Optimizer version 10.0.1 build v10.0.1rc0 (mac64[arm])

CPU model: Apple M1
Thread count: 8 physical cores, 8 logical processors, using up to 8 threads

Optimize a model with 1694 rows, 6293 columns and 24772 nonzeros
Model fingerprint: 0x20fb8293
Model has 8978 general constraints
Variable types: 1 continuous, 6292 integer (408 binary)
Coefficient statistics:
  Matrix range     [6e-02, 3e+05]
  Objective range  [2e-01, 2e+05]
  Bounds range     [1e+00, 2e+07]
  RHS range        [4e+03, 2e+04]
  GenCon rhs range [1e+00, 1e+00]
  GenCon coe range [1e+00, 1e+00]
Presolve removed 47 rows and 378 columns
Presolve time: 0.07s
Presolved: 1647 rows, 5915 columns, 23706 nonzeros
Presolved model has 2 SOS constraint(s)
Variable types: 0 continuous, 5915 integer (32 binary)

Root relaxation: objective 5.108674e+07, 7482 iterations, 0.11 seconds (0.15 work units)

    Nodes    |    Current Node    |     Objective Bounds      |     Work
 Expl Unexpl |  Obj  Depth IntInf | Incumbent    BestBd   Gap | It/Node Time

     0     0 5.1087e+07    0  379          - 5.1087e+07      -     -    0s
     0     0 5.1156e+07    0  894          - 5.1156e+07      -     -    0s
H    0     0                    5.450267e+07 5.1156e+07  6.14%     -    0s
     0     0 5.1205e+07    0  888 5.4503e+07 5.1205e+07  6.05%     -    0s
     0     0 5.1205e+07    0  930 5.4503e+07 5.1205e+07  6.05%     -    0s
     0     0 5.1205e+07    0  928 5.4503e+07 5.1205e+07  6.05%     -    0s
     0     0 5.1307e+07    0  953 5.4503e+07 5.1307e+07  5.86%     -    0s
     0     0 5.1328e+07    0  853 5.4503e+07 5.1328e+07  5.82%     -    0s
     0     0 5.1328e+07    0  857 5.4503e+07 5.1328e+07  5.82%     -    0s
     0     0 5.1328e+07    0  866 5.4503e+07 5.1328e+07  5.82%     -    0s
     0     0 5.1328e+07    0  869 5.4503e+07 5.1328e+07  5.82%     -    0s
     0     0 5.1371e+07    0  876 5.4503e+07 5.1371e+07  5.75%     -    0s
     0     0 5.1426e+07    0  862 5.4503e+07 5.1426e+07  5.64%     -    0s
H    0     0                    5.444629e+07 5.1426e+07  5.55%     -    0s
     0     2 5.1426e+07    0  845 5.4446e+07 5.1426e+07  5.55%     -    0s
H   34    40                    5.415751e+07 5.1535e+07  4.84%   456    0s
H   73    76                    5.396603e+07 5.1566e+07  4.45%   343    1s
*  708   322              17    5.385285e+07 5.1820e+07  3.77%   210    2s
H 2000   528                    5.374908e+07 5.2220e+07  2.84%   151    3s
H 2736   438                    5.374372e+07 5.2551e+07  2.22%   175    5s
H 2737   432                    5.372789e+07 5.2551e+07  2.19%   175    5s
H 2754   432                    5.372789e+07 5.2551e+07  2.19%   175    5s
H 2769   416                    5.371149e+07 5.2571e+07  2.12%   175    5s
H 3117   383                    5.371129e+07 5.2782e+07  1.73%   177    6s
* 3320   700             133    5.371123e+07 5.2866e+07  1.57%   173    6s
H 3623   456                    5.371123e+07 5.2866e+07  1.57%   161    6s
H 3819   516                    5.371123e+07 5.2866e+07  1.57%   163    7s
H 3820   495                    5.371123e+07 5.2866e+07  1.57%   163    7s
  6852   976 infeasible   23      5.3711e+07 5.2866e+07  1.57%   122   10s
H12456  1605                    5.363052e+07 5.2866e+07  1.43%   101   12s
*16876  1554              26    5.362600e+07 5.3010e+07  1.15%  95.8   14s
 17516  1486     cutoff   27      5.3626e+07 5.3080e+07  1.02%  95.0   15s

Explored 26197 nodes (2342131 simplex iterations) in 19.00 seconds (28.55 work units)
Thread count was 8 (of 8 available processors)

Solution count 10: 5.3626e+07 5.36305e+07 5.37112e+07 ... 5.37279e+07

Optimal solution found (tolerance 1.00e-04)
Best objective 5.362599843700e+07, best bound 5.362599843700e+07, gap 0.0000%

Gurobi 10.0.1 (mac64[arm]) logging started Mon Sep 18 22:42:04 2023

Set parameter LogFile to value "scenario_co2cap/results/mip_log.txt"
Gurobi Optimizer version 10.0.1 build v10.0.1rc0 (mac64[arm])

CPU model: Apple M1
Thread count: 8 physical cores, 8 logical processors, using up to 8 threads

Optimize a model with 1694 rows, 6293 columns and 24772 nonzeros
Model fingerprint: 0x20fb8293
Model has 8978 general constraints
Variable types: 1 continuous, 6292 integer (408 binary)
Coefficient statistics:
  Matrix range     [6e-02, 3e+05]
  Objective range  [2e-01, 2e+05]
  Bounds range     [1e+00, 2e+07]
  RHS range        [4e+03, 2e+04]
  GenCon rhs range [1e+00, 1e+00]
  GenCon coe range [1e+00, 1e+00]
Presolve removed 47 rows and 378 columns
Presolve time: 0.07s
Presolved: 1647 rows, 5915 columns, 23706 nonzeros
Presolved model has 2 SOS constraint(s)
Variable types: 0 continuous, 5915 integer (32 binary)

Root relaxation: objective 5.108674e+07, 7482 iterations, 0.11 seconds (0.15 work units)

    Nodes    |    Current Node    |     Objective Bounds      |     Work
 Expl Unexpl |  Obj  Depth IntInf | Incumbent    BestBd   Gap | It/Node Time

     0     0 5.1087e+07    0  379          - 5.1087e+07      -     -    0s
     0     0 5.1156e+07    0  894          - 5.1156e+07      -     -    0s
H    0     0                    5.450267e+07 5.1156e+07  6.14%     -    0s
     0     0 5.1205e+07    0  888 5.4503e+07 5.1205e+07  6.05%     -    0s
     0     0 5.1205e+07    0  930 5.4503e+07 5.1205e+07  6.05%     -    0s
     0     0 5.1205e+07    0  928 5.4503e+07 5.1205e+07  6.05%     -    0s
     0     0 5.1307e+07    0  953 5.4503e+07 5.1307e+07  5.86%     -    0s
     0     0 5.1328e+07    0  853 5.4503e+07 5.1328e+07  5.82%     -    0s
     0     0 5.1328e+07    0  857 5.4503e+07 5.1328e+07  5.82%     -    0s
     0     0 5.1328e+07    0  866 5.4503e+07 5.1328e+07  5.82%     -    0s
     0     0 5.1328e+07    0  869 5.4503e+07 5.1328e+07  5.82%     -    0s
     0     0 5.1371e+07    0  876 5.4503e+07 5.1371e+07  5.75%     -    0s
     0     0 5.1426e+07    0  862 5.4503e+07 5.1426e+07  5.64%     -    0s
H    0     0                    5.444629e+07 5.1426e+07  5.55%     -    0s
     0     2 5.1426e+07    0  845 5.4446e+07 5.1426e+07  5.55%     -    0s
H   34    40                    5.415751e+07 5.1535e+07  4.84%   456    0s
H   73    76                    5.396603e+07 5.1566e+07  4.45%   343    1s
*  708   322              17    5.385285e+07 5.1820e+07  3.77%   210    2s
H 2000   528                    5.374908e+07 5.2220e+07  2.84%   151    4s
  2543   461 5.3168e+07    7  398 5.3749e+07 5.2460e+07  2.40%   170    5s
H 2736   438                    5.374372e+07 5.2551e+07  2.22%   175    5s
H 2737   432                    5.372789e+07 5.2551e+07  2.19%   175    5s
H 2754   432                    5.372789e+07 5.2551e+07  2.19%   175    5s
H 2769   416                    5.371149e+07 5.2571e+07  2.12%   175    5s
H 3117   383                    5.371129e+07 5.2782e+07  1.73%   177    6s
* 3320   700             133    5.371123e+07 5.2866e+07  1.57%   173    6s
H 3623   456                    5.371123e+07 5.2866e+07  1.57%   161    6s
H 3819   516                    5.371123e+07 5.2866e+07  1.57%   163    8s
H 3820   495                    5.371123e+07 5.2866e+07  1.57%   163    8s
  5685   655 5.2944e+07   23  297 5.3711e+07 5.2866e+07  1.57%   130   10s
H12456  1605                    5.363052e+07 5.2866e+07  1.43%   101   13s
 14620  1645 5.3219e+07   25   15 5.3631e+07 5.2866e+07  1.43%  98.9   15s
*16876  1554              26    5.362600e+07 5.3010e+07  1.15%  95.8   16s
 23553   506 5.3509e+07   33   39 5.3626e+07 5.3422e+07  0.38%  90.4   20s

Explored 26197 nodes (2342131 simplex iterations) in 21.29 seconds (28.55 work units)
Thread count was 8 (of 8 available processors)

Solution count 10: 5.3626e+07 5.36305e+07 5.37112e+07 ... 5.37279e+07

Optimal solution found (tolerance 1.00e-04)
Best objective 5.362599843700e+07, best bound 5.362599843700e+07, gap 0.0000%
